c FILE: i160-244

c SOURCE: From steinlib

c DESCRIPTION: Steinlib instance with 160 nodes and 2544 edges.

p edge 160 2544
e 1 2
e 1 13
e 1 17
e 1 19
e 1 20
e 1 24
e 1 36
e 1 49
e 1 52
e 1 54
e 1 59
e 1 60
e 1 61
e 1 71
e 1 76
e 1 91
e 1 92
e 1 101
e 1 105
e 1 106
e 1 112
e 1 114
e 1 117
e 1 120
e 1 132
e 1 134
e 1 138
e 1 140
e 1 144
e 1 154
e 2 9
e 2 14
e 2 17
e 2 18
e 2 30
e 2 32
e 2 34
e 2 39
e 2 40
e 2 43
e 2 52
e 2 54
e 2 56
e 2 58
e 2 66
e 2 75
e 2 81
e 2 87
e 2 95
e 2 101
e 2 108
e 2 109
e 2 115
e 2 128
e 2 131
e 2 135
e 2 142
e 2 145
e 3 10
e 3 11
e 3 21
e 3 28
e 3 35
e 3 49
e 3 51
e 3 59
e 3 62
e 3 63
e 3 66
e 3 82
e 3 87
e 3 88
e 3 91
e 3 92
e 3 93
e 3 100
e 3 108
e 3 111
e 3 114
e 3 121
e 3 134
e 3 136
e 3 138
e 3 145
e 3 156
e 3 160
e 4 9
e 4 13
e 4 15
e 4 20
e 4 25
e 4 31
e 4 33
e 4 37
e 4 42
e 4 45
e 4 49
e 4 58
e 4 69
e 4 71
e 4 72
e 4 75
e 4 89
e 4 92
e 4 97
e 4 104
e 4 113
e 4 125
e 4 130
e 4 132
e 4 140
e 4 144
e 4 146
e 4 154
e 4 158
e 5 13
e 5 30
e 5 37
e 5 40
e 5 41
e 5 42
e 5 48
e 5 51
e 5 56
e 5 58
e 5 62
e 5 67
e 5 72
e 5 92
e 5 106
e 5 107
e 5 112
e 5 117
e 5 121
e 5 122
e 5 123
e 5 126
e 5 136
e 5 141
e 5 151
e 5 152
e 5 154
e 5 159
e 5 160
e 6 8
e 6 10
e 6 12
e 6 15
e 6 22
e 6 32
e 6 34
e 6 35
e 6 39
e 6 47
e 6 50
e 6 55
e 6 74
e 6 75
e 6 78
e 6 79
e 6 80
e 6 81
e 6 82
e 6 89
e 6 91
e 6 96
e 6 97
e 6 108
e 6 113
e 6 122
e 6 134
e 6 142
e 6 152
e 7 19
e 7 24
e 7 25
e 7 32
e 7 33
e 7 37
e 7 41
e 7 45
e 7 49
e 7 52
e 7 59
e 7 63
e 7 66
e 7 84
e 7 85
e 7 94
e 7 96
e 7 101
e 7 102
e 7 110
e 7 118
e 7 121
e 7 125
e 7 136
e 7 142
e 7 144
e 7 157
e 7 159
e 7 160
e 8 18
e 8 19
e 8 20
e 8 21
e 8 24
e 8 27
e 8 41
e 8 54
e 8 55
e 8 57
e 8 59
e 8 69
e 8 75
e 8 77
e 8 85
e 8 86
e 8 87
e 8 90
e 8 95
e 8 96
e 8 99
e 8 101
e 8 105
e 8 113
e 8 117
e 8 118
e 8 120
e 8 122
e 8 125
e 8 126
e 8 128
e 8 129
e 8 130
e 8 132
e 8 135
e 8 139
e 8 151
e 8 156
e 8 158
e 8 159
e 8 160
e 9 14
e 9 25
e 9 34
e 9 44
e 9 45
e 9 51
e 9 60
e 9 61
e 9 62
e 9 65
e 9 66
e 9 70
e 9 73
e 9 74
e 9 78
e 9 83
e 9 85
e 9 87
e 9 94
e 9 97
e 9 98
e 9 101
e 9 102
e 9 108
e 9 117
e 9 135
e 9 136
e 9 141
e 9 154
e 9 160
e 10 11
e 10 20
e 10 24
e 10 42
e 10 43
e 10 53
e 10 56
e 10 59
e 10 61
e 10 63
e 10 73
e 10 79
e 10 84
e 10 85
e 10 92
e 10 93
e 10 94
e 10 105
e 10 112
e 10 120
e 10 125
e 10 127
e 10 130
e 10 142
e 11 12
e 11 14
e 11 16
e 11 29
e 11 38
e 11 40
e 11 42
e 11 44
e 11 46
e 11 49
e 11 56
e 11 62
e 11 65
e 11 68
e 11 78
e 11 79
e 11 88
e 11 95
e 11 96
e 11 97
e 11 104
e 11 109
e 11 112
e 11 116
e 11 123
e 11 133
e 11 136
e 11 138
e 11 144
e 11 147
e 11 148
e 11 157
e 12 15
e 12 19
e 12 33
e 12 35
e 12 39
e 12 40
e 12 50
e 12 56
e 12 60
e 12 64
e 12 69
e 12 77
e 12 80
e 12 81
e 12 94
e 12 101
e 12 102
e 12 111
e 12 113
e 12 118
e 12 130
e 12 131
e 12 134
e 12 143
e 12 153
e 12 156
e 12 160
e 13 19
e 13 20
e 13 25
e 13 39
e 13 57
e 13 58
e 13 59
e 13 60
e 13 62
e 13 63
e 13 64
e 13 65
e 13 73
e 13 76
e 13 77
e 13 78
e 13 84
e 13 86
e 13 91
e 13 95
e 13 97
e 13 107
e 13 116
e 13 121
e 13 123
e 13 139
e 13 144
e 13 146
e 13 154
e 14 15
e 14 17
e 14 22
e 14 31
e 14 36
e 14 38
e 14 39
e 14 40
e 14 42
e 14 44
e 14 46
e 14 53
e 14 56
e 14 58
e 14 65
e 14 69
e 14 74
e 14 82
e 14 85
e 14 98
e 14 101
e 14 117
e 14 119
e 14 125
e 14 130
e 14 146
e 14 149
e 14 150
e 14 155
e 14 157
e 15 17
e 15 31
e 15 32
e 15 36
e 15 37
e 15 45
e 15 47
e 15 48
e 15 59
e 15 61
e 15 65
e 15 66
e 15 67
e 15 69
e 15 71
e 15 73
e 15 79
e 15 82
e 15 88
e 15 91
e 15 92
e 15 94
e 15 108
e 15 112
e 15 117
e 15 135
e 15 136
e 15 137
e 15 139
e 15 141
e 15 143
e 15 148
e 15 158
e 16 32
e 16 43
e 16 45
e 16 51
e 16 59
e 16 61
e 16 65
e 16 75
e 16 77
e 16 82
e 16 84
e 16 85
e 16 93
e 16 96
e 16 99
e 16 105
e 16 114
e 16 115
e 16 119
e 16 123
e 16 124
e 16 128
e 16 133
e 16 138
e 16 139
e 16 157
e 16 158
e 17 23
e 17 24
e 17 28
e 17 30
e 17 32
e 17 33
e 17 34
e 17 38
e 17 40
e 17 54
e 17 56
e 17 62
e 17 63
e 17 69
e 17 70
e 17 71
e 17 79
e 17 90
e 17 100
e 17 102
e 17 111
e 17 112
e 17 121
e 17 122
e 17 123
e 17 128
e 17 129
e 17 134
e 17 135
e 17 141
e 17 144
e 17 145
e 17 148
e 17 150
e 17 159
e 18 20
e 18 26
e 18 40
e 18 43
e 18 48
e 18 52
e 18 53
e 18 59
e 18 67
e 18 79
e 18 82
e 18 91
e 18 92
e 18 97
e 18 106
e 18 114
e 18 122
e 18 125
e 18 128
e 18 138
e 18 139
e 18 144
e 18 148
e 18 156
e 18 159
e 19 20
e 19 28
e 19 30
e 19 38
e 19 49
e 19 52
e 19 56
e 19 60
e 19 63
e 19 66
e 19 79
e 19 87
e 19 90
e 19 92
e 19 94
e 19 95
e 19 96
e 19 98
e 19 99
e 19 101
e 19 102
e 19 104
e 19 108
e 19 109
e 19 113
e 19 118
e 19 121
e 19 123
e 19 125
e 19 126
e 19 128
e 19 131
e 19 154
e 20 21
e 20 24
e 20 30
e 20 38
e 20 41
e 20 45
e 20 49
e 20 51
e 20 54
e 20 58
e 20 77
e 20 90
e 20 94
e 20 100
e 20 105
e 20 106
e 20 116
e 20 118
e 20 130
e 20 140
e 20 145
e 20 147
e 20 148
e 20 153
e 20 154
e 20 157
e 20 159
e 21 23
e 21 25
e 21 37
e 21 50
e 21 53
e 21 58
e 21 61
e 21 63
e 21 66
e 21 77
e 21 90
e 21 92
e 21 114
e 21 124
e 21 131
e 21 141
e 21 148
e 21 155
e 21 156
e 22 24
e 22 25
e 22 39
e 22 46
e 22 51
e 22 72
e 22 74
e 22 75
e 22 84
e 22 85
e 22 91
e 22 93
e 22 98
e 22 99
e 22 104
e 22 107
e 22 118
e 22 123
e 22 124
e 22 126
e 22 128
e 22 132
e 22 135
e 22 139
e 22 140
e 22 142
e 22 143
e 22 149
e 22 154
e 23 26
e 23 30
e 23 40
e 23 41
e 23 43
e 23 44
e 23 47
e 23 50
e 23 52
e 23 56
e 23 60
e 23 63
e 23 64
e 23 70
e 23 96
e 23 100
e 23 106
e 23 107
e 23 110
e 23 118
e 23 134
e 23 137
e 23 140
e 23 151
e 23 154
e 23 159
e 24 25
e 24 28
e 24 30
e 24 34
e 24 39
e 24 41
e 24 52
e 24 61
e 24 69
e 24 70
e 24 71
e 24 72
e 24 74
e 24 85
e 24 86
e 24 89
e 24 105
e 24 110
e 24 112
e 24 115
e 24 120
e 24 128
e 24 131
e 24 136
e 24 144
e 24 150
e 24 153
e 24 155
e 24 156
e 24 158
e 25 31
e 25 32
e 25 34
e 25 38
e 25 41
e 25 42
e 25 44
e 25 45
e 25 47
e 25 56
e 25 67
e 25 73
e 25 78
e 25 82
e 25 91
e 25 96
e 25 97
e 25 98
e 25 99
e 25 103
e 25 109
e 25 112
e 25 115
e 25 116
e 25 118
e 25 123
e 25 124
e 25 128
e 25 130
e 25 131
e 25 135
e 25 139
e 25 147
e 25 150
e 25 156
e 26 28
e 26 31
e 26 36
e 26 38
e 26 40
e 26 47
e 26 48
e 26 57
e 26 59
e 26 64
e 26 73
e 26 80
e 26 89
e 26 91
e 26 103
e 26 106
e 26 111
e 26 115
e 26 120
e 26 122
e 26 132
e 26 140
e 26 146
e 26 149
e 26 154
e 26 160
e 27 28
e 27 31
e 27 39
e 27 45
e 27 49
e 27 54
e 27 60
e 27 76
e 27 85
e 27 94
e 27 98
e 27 101
e 27 103
e 27 106
e 27 110
e 27 114
e 27 115
e 27 120
e 27 122
e 27 131
e 27 141
e 27 143
e 27 151
e 27 153
e 28 38
e 28 48
e 28 49
e 28 50
e 28 54
e 28 55
e 28 59
e 28 66
e 28 78
e 28 80
e 28 84
e 28 92
e 28 96
e 28 97
e 28 98
e 28 101
e 28 105
e 28 106
e 28 115
e 28 117
e 28 119
e 28 121
e 28 122
e 28 123
e 28 125
e 28 128
e 28 140
e 28 142
e 28 146
e 28 148
e 28 154
e 28 155
e 28 160
e 29 34
e 29 39
e 29 42
e 29 55
e 29 63
e 29 65
e 29 67
e 29 69
e 29 71
e 29 72
e 29 74
e 29 83
e 29 88
e 29 89
e 29 98
e 29 101
e 29 102
e 29 105
e 29 110
e 29 113
e 29 115
e 29 117
e 29 119
e 29 122
e 29 124
e 29 129
e 29 130
e 29 141
e 29 143
e 29 149
e 29 150
e 29 152
e 29 154
e 29 160
e 30 38
e 30 42
e 30 43
e 30 44
e 30 55
e 30 65
e 30 76
e 30 80
e 30 90
e 30 91
e 30 100
e 30 102
e 30 103
e 30 107
e 30 112
e 30 122
e 30 126
e 30 135
e 30 136
e 30 141
e 30 142
e 30 148
e 30 153
e 30 154
e 31 37
e 31 38
e 31 41
e 31 43
e 31 45
e 31 49
e 31 51
e 31 56
e 31 58
e 31 59
e 31 61
e 31 66
e 31 71
e 31 84
e 31 89
e 31 91
e 31 97
e 31 106
e 31 122
e 31 135
e 31 138
e 31 148
e 31 149
e 31 153
e 31 154
e 31 157
e 32 33
e 32 35
e 32 40
e 32 43
e 32 44
e 32 53
e 32 54
e 32 60
e 32 61
e 32 68
e 32 93
e 32 94
e 32 100
e 32 104
e 32 105
e 32 107
e 32 108
e 32 115
e 32 120
e 32 129
e 32 130
e 32 134
e 32 135
e 32 139
e 32 144
e 32 146
e 32 153
e 32 155
e 32 158
e 32 159
e 33 37
e 33 42
e 33 50
e 33 60
e 33 63
e 33 67
e 33 83
e 33 96
e 33 100
e 33 104
e 33 105
e 33 115
e 33 121
e 33 127
e 33 131
e 33 133
e 33 134
e 33 137
e 33 141
e 33 150
e 33 154
e 33 158
e 34 37
e 34 40
e 34 45
e 34 50
e 34 57
e 34 58
e 34 59
e 34 61
e 34 65
e 34 70
e 34 72
e 34 75
e 34 81
e 34 85
e 34 89
e 34 96
e 34 100
e 34 107
e 34 113
e 34 114
e 34 118
e 34 122
e 34 125
e 34 127
e 34 131
e 34 153
e 34 156
e 34 158
e 34 159
e 34 160
e 35 36
e 35 40
e 35 51
e 35 52
e 35 55
e 35 60
e 35 66
e 35 68
e 35 77
e 35 78
e 35 81
e 35 86
e 35 91
e 35 93
e 35 97
e 35 111
e 35 112
e 35 119
e 35 120
e 35 125
e 35 134
e 35 138
e 35 144
e 35 157
e 36 37
e 36 46
e 36 52
e 36 54
e 36 64
e 36 71
e 36 79
e 36 81
e 36 82
e 36 83
e 36 103
e 36 115
e 36 121
e 36 123
e 36 126
e 36 127
e 36 129
e 36 130
e 36 136
e 36 138
e 36 144
e 36 151
e 36 154
e 36 156
e 37 41
e 37 49
e 37 72
e 37 78
e 37 81
e 37 84
e 37 88
e 37 101
e 37 107
e 37 112
e 37 122
e 37 125
e 37 127
e 37 134
e 37 136
e 37 143
e 37 155
e 38 42
e 38 57
e 38 60
e 38 63
e 38 80
e 38 83
e 38 87
e 38 89
e 38 99
e 38 100
e 38 101
e 38 102
e 38 108
e 38 114
e 38 117
e 38 125
e 38 128
e 38 131
e 38 132
e 38 134
e 38 135
e 38 141
e 38 144
e 38 153
e 38 156
e 38 160
e 39 41
e 39 45
e 39 53
e 39 55
e 39 69
e 39 75
e 39 88
e 39 97
e 39 103
e 39 115
e 39 120
e 39 121
e 39 127
e 39 129
e 39 130
e 39 134
e 39 143
e 39 145
e 39 146
e 39 147
e 39 151
e 39 156
e 39 159
e 40 41
e 40 52
e 40 53
e 40 55
e 40 56
e 40 65
e 40 70
e 40 73
e 40 75
e 40 82
e 40 87
e 40 94
e 40 110
e 40 112
e 40 116
e 40 122
e 40 123
e 40 134
e 40 136
e 40 138
e 40 147
e 40 155
e 40 156
e 40 157
e 41 47
e 41 50
e 41 53
e 41 57
e 41 73
e 41 78
e 41 93
e 41 97
e 41 98
e 41 101
e 41 109
e 41 115
e 41 118
e 41 122
e 41 123
e 41 126
e 41 127
e 41 129
e 41 131
e 41 152
e 41 160
e 42 54
e 42 56
e 42 65
e 42 66
e 42 70
e 42 75
e 42 82
e 42 92
e 42 96
e 42 101
e 42 104
e 42 110
e 42 137
e 42 138
e 42 143
e 42 145
e 42 146
e 42 148
e 42 151
e 42 153
e 42 157
e 43 63
e 43 68
e 43 69
e 43 87
e 43 90
e 43 91
e 43 93
e 43 99
e 43 100
e 43 111
e 43 112
e 43 115
e 43 125
e 43 134
e 43 139
e 43 141
e 43 147
e 43 148
e 44 49
e 44 52
e 44 54
e 44 55
e 44 58
e 44 62
e 44 64
e 44 65
e 44 69
e 44 75
e 44 81
e 44 83
e 44 85
e 44 90
e 44 91
e 44 92
e 44 100
e 44 101
e 44 104
e 44 107
e 44 121
e 44 136
e 44 140
e 44 153
e 44 156
e 44 157
e 45 48
e 45 54
e 45 64
e 45 65
e 45 68
e 45 72
e 45 75
e 45 93
e 45 95
e 45 106
e 45 111
e 45 122
e 45 127
e 45 130
e 45 131
e 45 141
e 45 142
e 45 146
e 45 150
e 45 158
e 45 159
e 46 47
e 46 57
e 46 58
e 46 59
e 46 72
e 46 74
e 46 79
e 46 83
e 46 90
e 46 93
e 46 103
e 46 106
e 46 107
e 46 118
e 46 121
e 46 124
e 46 125
e 46 130
e 46 133
e 46 135
e 46 146
e 46 153
e 46 158
e 47 49
e 47 52
e 47 54
e 47 59
e 47 60
e 47 65
e 47 73
e 47 75
e 47 82
e 47 84
e 47 87
e 47 95
e 47 97
e 47 100
e 47 114
e 47 121
e 47 122
e 47 123
e 47 138
e 47 142
e 47 143
e 47 146
e 47 147
e 47 148
e 47 158
e 47 159
e 48 50
e 48 54
e 48 59
e 48 65
e 48 74
e 48 80
e 48 87
e 48 88
e 48 92
e 48 95
e 48 99
e 48 107
e 48 108
e 48 110
e 48 111
e 48 119
e 48 120
e 48 126
e 48 130
e 48 132
e 48 144
e 48 151
e 48 152
e 48 155
e 48 158
e 48 159
e 49 50
e 49 67
e 49 70
e 49 71
e 49 75
e 49 80
e 49 81
e 49 83
e 49 84
e 49 90
e 49 91
e 49 93
e 49 94
e 49 99
e 49 104
e 49 109
e 49 114
e 49 116
e 49 118
e 49 131
e 49 135
e 49 137
e 49 138
e 49 140
e 49 157
e 49 159
e 50 56
e 50 59
e 50 60
e 50 65
e 50 70
e 50 71
e 50 73
e 50 79
e 50 80
e 50 99
e 50 102
e 50 108
e 50 109
e 50 110
e 50 112
e 50 118
e 50 132
e 50 138
e 50 140
e 50 148
e 50 151
e 50 152
e 50 154
e 50 158
e 50 160
e 51 52
e 51 53
e 51 56
e 51 59
e 51 62
e 51 67
e 51 69
e 51 73
e 51 76
e 51 83
e 51 86
e 51 87
e 51 90
e 51 97
e 51 99
e 51 108
e 51 112
e 51 119
e 51 124
e 51 131
e 51 134
e 51 141
e 51 146
e 51 158
e 52 54
e 52 57
e 52 62
e 52 66
e 52 70
e 52 73
e 52 76
e 52 80
e 52 82
e 52 125
e 52 136
e 52 137
e 52 138
e 52 144
e 52 147
e 52 151
e 52 155
e 53 65
e 53 67
e 53 71
e 53 74
e 53 76
e 53 77
e 53 84
e 53 85
e 53 96
e 53 98
e 53 103
e 53 113
e 53 116
e 53 123
e 53 129
e 53 131
e 53 137
e 53 140
e 53 143
e 53 144
e 53 147
e 53 152
e 53 155
e 53 160
e 54 60
e 54 64
e 54 67
e 54 69
e 54 71
e 54 79
e 54 86
e 54 94
e 54 95
e 54 97
e 54 106
e 54 110
e 54 111
e 54 115
e 54 120
e 54 124
e 54 126
e 54 135
e 54 139
e 54 143
e 54 148
e 54 149
e 54 151
e 55 60
e 55 70
e 55 72
e 55 78
e 55 79
e 55 83
e 55 95
e 55 98
e 55 100
e 55 111
e 55 113
e 55 114
e 55 118
e 55 131
e 55 133
e 55 134
e 55 136
e 55 139
e 55 140
e 55 141
e 55 145
e 55 147
e 55 150
e 55 157
e 55 160
e 56 58
e 56 64
e 56 69
e 56 75
e 56 79
e 56 81
e 56 85
e 56 89
e 56 104
e 56 119
e 56 122
e 56 125
e 56 126
e 56 129
e 56 130
e 56 143
e 56 153
e 56 155
e 57 58
e 57 59
e 57 62
e 57 63
e 57 64
e 57 83
e 57 89
e 57 92
e 57 113
e 57 118
e 57 120
e 57 129
e 57 130
e 57 142
e 57 148
e 57 150
e 57 153
e 57 156
e 57 158
e 57 159
e 58 62
e 58 63
e 58 67
e 58 70
e 58 71
e 58 78
e 58 102
e 58 104
e 58 112
e 58 125
e 58 126
e 58 129
e 58 136
e 58 147
e 58 148
e 58 149
e 58 155
e 58 157
e 59 63
e 59 65
e 59 68
e 59 69
e 59 75
e 59 76
e 59 77
e 59 79
e 59 94
e 59 99
e 59 104
e 59 106
e 59 107
e 59 115
e 59 119
e 59 141
e 59 159
e 60 67
e 60 70
e 60 71
e 60 74
e 60 85
e 60 87
e 60 92
e 60 105
e 60 106
e 60 115
e 60 125
e 60 126
e 60 129
e 60 132
e 60 137
e 60 138
e 60 142
e 60 144
e 60 145
e 60 160
e 61 63
e 61 65
e 61 66
e 61 70
e 61 72
e 61 78
e 61 88
e 61 94
e 61 97
e 61 102
e 61 114
e 61 116
e 61 128
e 61 130
e 61 131
e 61 134
e 61 139
e 61 151
e 61 158
e 61 159
e 62 68
e 62 73
e 62 75
e 62 81
e 62 86
e 62 93
e 62 109
e 62 120
e 62 124
e 62 128
e 62 129
e 62 140
e 62 141
e 62 145
e 62 146
e 62 147
e 62 150
e 62 154
e 63 69
e 63 73
e 63 76
e 63 86
e 63 88
e 63 98
e 63 108
e 63 112
e 63 113
e 63 117
e 63 121
e 63 122
e 63 124
e 63 127
e 63 136
e 63 141
e 63 152
e 63 155
e 63 157
e 63 159
e 64 69
e 64 75
e 64 85
e 64 92
e 64 93
e 64 103
e 64 105
e 64 111
e 64 120
e 64 121
e 64 122
e 64 127
e 64 128
e 64 137
e 64 145
e 64 152
e 64 155
e 64 156
e 64 157
e 65 94
e 65 99
e 65 126
e 65 135
e 65 137
e 65 142
e 65 150
e 65 156
e 65 157
e 65 158
e 66 67
e 66 78
e 66 90
e 66 101
e 66 108
e 66 113
e 66 117
e 66 118
e 66 126
e 66 136
e 66 137
e 66 139
e 66 146
e 66 151
e 66 158
e 66 160
e 67 70
e 67 73
e 67 75
e 67 79
e 67 81
e 67 82
e 67 100
e 67 118
e 67 121
e 67 125
e 67 129
e 67 134
e 67 149
e 67 160
e 68 69
e 68 74
e 68 75
e 68 83
e 68 95
e 68 98
e 68 101
e 68 107
e 68 110
e 68 113
e 68 116
e 68 118
e 68 133
e 68 142
e 68 153
e 68 156
e 69 71
e 69 72
e 69 77
e 69 78
e 69 80
e 69 83
e 69 96
e 69 97
e 69 102
e 69 109
e 69 119
e 69 120
e 69 123
e 69 124
e 69 127
e 69 129
e 69 132
e 69 142
e 69 144
e 69 145
e 69 154
e 69 158
e 70 79
e 70 87
e 70 90
e 70 93
e 70 98
e 70 101
e 70 124
e 70 125
e 70 135
e 70 139
e 70 144
e 70 155
e 71 74
e 71 76
e 71 85
e 71 88
e 71 94
e 71 100
e 71 101
e 71 115
e 71 118
e 71 119
e 71 120
e 71 121
e 71 124
e 71 129
e 71 134
e 71 142
e 71 145
e 71 153
e 71 154
e 71 156
e 72 80
e 72 85
e 72 88
e 72 93
e 72 96
e 72 99
e 72 100
e 72 104
e 72 118
e 72 120
e 72 123
e 72 127
e 72 132
e 72 133
e 72 145
e 72 157
e 72 159
e 73 91
e 73 107
e 73 109
e 73 111
e 73 122
e 73 124
e 73 134
e 73 135
e 73 138
e 73 145
e 73 150
e 73 152
e 73 155
e 73 156
e 73 160
e 74 83
e 74 84
e 74 89
e 74 95
e 74 100
e 74 105
e 74 106
e 74 119
e 74 134
e 74 142
e 74 144
e 74 158
e 75 79
e 75 90
e 75 94
e 75 101
e 75 102
e 75 111
e 75 114
e 75 115
e 75 119
e 75 124
e 75 151
e 75 156
e 75 159
e 76 86
e 76 96
e 76 99
e 76 111
e 76 112
e 76 117
e 76 118
e 76 125
e 76 127
e 76 140
e 76 142
e 76 144
e 76 145
e 76 151
e 76 156
e 76 157
e 77 90
e 77 94
e 77 99
e 77 108
e 77 112
e 77 116
e 77 121
e 77 133
e 77 135
e 77 136
e 77 137
e 77 140
e 77 141
e 77 151
e 78 93
e 78 98
e 78 99
e 78 107
e 78 108
e 78 111
e 78 118
e 78 119
e 78 124
e 78 127
e 78 136
e 78 144
e 78 145
e 78 152
e 78 153
e 78 154
e 78 155
e 78 159
e 79 82
e 79 85
e 79 94
e 79 95
e 79 104
e 79 106
e 79 116
e 79 117
e 79 118
e 79 122
e 79 138
e 79 145
e 79 146
e 80 81
e 80 83
e 80 84
e 80 88
e 80 95
e 80 96
e 80 98
e 80 99
e 80 100
e 80 105
e 80 107
e 80 109
e 80 121
e 80 126
e 80 129
e 80 131
e 80 140
e 80 144
e 80 145
e 80 146
e 80 151
e 80 152
e 81 91
e 81 95
e 81 98
e 81 100
e 81 104
e 81 108
e 81 110
e 81 113
e 81 114
e 81 115
e 81 121
e 81 123
e 81 126
e 81 127
e 81 129
e 81 130
e 81 134
e 81 136
e 81 137
e 81 142
e 81 153
e 81 154
e 81 156
e 82 92
e 82 100
e 82 102
e 82 115
e 82 118
e 82 123
e 82 126
e 82 130
e 82 131
e 82 132
e 82 136
e 82 143
e 82 148
e 82 151
e 82 156
e 82 158
e 83 92
e 83 93
e 83 96
e 83 100
e 83 103
e 83 104
e 83 115
e 83 116
e 83 119
e 83 129
e 83 135
e 83 138
e 83 141
e 83 152
e 83 155
e 83 158
e 83 159
e 84 86
e 84 91
e 84 116
e 84 122
e 84 130
e 84 135
e 84 136
e 84 137
e 84 139
e 84 143
e 84 158
e 85 90
e 85 95
e 85 113
e 85 116
e 85 117
e 85 120
e 85 121
e 85 122
e 85 125
e 85 135
e 85 136
e 85 144
e 85 146
e 85 149
e 85 160
e 86 91
e 86 96
e 86 97
e 86 98
e 86 102
e 86 110
e 86 114
e 86 115
e 86 116
e 86 128
e 86 138
e 86 148
e 86 152
e 86 153
e 87 89
e 87 99
e 87 116
e 87 124
e 87 131
e 87 132
e 87 133
e 87 136
e 87 137
e 87 139
e 87 153
e 87 158
e 88 89
e 88 91
e 88 92
e 88 93
e 88 98
e 88 106
e 88 117
e 88 120
e 88 122
e 88 127
e 88 132
e 88 136
e 88 141
e 88 143
e 88 145
e 88 155
e 88 160
e 89 92
e 89 93
e 89 97
e 89 98
e 89 101
e 89 105
e 89 106
e 89 111
e 89 113
e 89 115
e 89 121
e 89 129
e 89 136
e 89 139
e 89 143
e 89 150
e 89 157
e 89 158
e 90 92
e 90 98
e 90 99
e 90 104
e 90 109
e 90 125
e 90 127
e 90 130
e 90 132
e 90 141
e 90 142
e 90 154
e 90 160
e 91 92
e 91 94
e 91 105
e 91 121
e 91 122
e 91 136
e 91 138
e 91 141
e 91 152
e 91 153
e 91 158
e 92 96
e 92 103
e 92 106
e 92 108
e 92 109
e 92 112
e 92 121
e 92 125
e 92 132
e 92 134
e 92 137
e 92 138
e 92 141
e 92 142
e 92 146
e 92 148
e 92 151
e 92 155
e 92 160
e 93 95
e 93 97
e 93 100
e 93 104
e 93 112
e 93 120
e 93 121
e 93 122
e 93 138
e 93 140
e 93 143
e 93 152
e 93 156
e 93 160
e 94 95
e 94 100
e 94 103
e 94 108
e 94 109
e 94 125
e 94 134
e 94 140
e 94 146
e 94 151
e 94 156
e 94 160
e 95 96
e 95 101
e 95 117
e 95 118
e 95 123
e 95 127
e 95 139
e 95 140
e 95 145
e 95 146
e 95 154
e 95 155
e 95 157
e 96 97
e 96 101
e 96 102
e 96 112
e 96 123
e 96 127
e 96 129
e 96 134
e 96 137
e 96 143
e 96 146
e 96 151
e 96 152
e 96 160
e 97 100
e 97 101
e 97 103
e 97 106
e 97 108
e 97 110
e 97 111
e 97 117
e 97 123
e 97 126
e 97 127
e 97 132
e 97 141
e 97 143
e 97 144
e 97 145
e 97 146
e 97 147
e 97 156
e 97 157
e 97 159
e 98 100
e 98 113
e 98 114
e 98 122
e 98 131
e 98 136
e 98 153
e 98 155
e 99 103
e 99 106
e 99 112
e 99 126
e 99 127
e 99 130
e 99 131
e 99 135
e 99 137
e 99 139
e 99 140
e 99 146
e 99 151
e 100 104
e 100 106
e 100 107
e 100 108
e 100 119
e 100 127
e 100 129
e 100 133
e 100 142
e 100 145
e 100 146
e 101 106
e 101 107
e 101 108
e 101 109
e 101 123
e 101 124
e 101 125
e 101 127
e 101 128
e 101 129
e 101 136
e 101 139
e 101 143
e 101 145
e 101 149
e 101 151
e 102 105
e 102 106
e 102 107
e 102 110
e 102 111
e 102 122
e 102 123
e 102 126
e 102 128
e 102 132
e 102 138
e 102 141
e 102 158
e 102 160
e 103 106
e 103 116
e 103 119
e 103 120
e 103 126
e 103 130
e 103 139
e 103 142
e 103 145
e 103 152
e 103 159
e 103 160
e 104 105
e 104 111
e 104 112
e 104 113
e 104 125
e 104 127
e 104 130
e 104 134
e 104 137
e 105 119
e 105 123
e 105 126
e 105 130
e 105 133
e 105 135
e 105 136
e 105 152
e 105 159
e 106 125
e 106 127
e 106 131
e 106 132
e 106 135
e 106 145
e 106 154
e 107 114
e 107 124
e 107 133
e 107 136
e 107 137
e 107 141
e 107 151
e 107 154
e 107 155
e 108 109
e 108 125
e 108 133
e 108 138
e 108 142
e 108 150
e 108 151
e 109 110
e 109 113
e 109 116
e 109 129
e 109 130
e 109 152
e 109 153
e 109 157
e 110 116
e 110 118
e 110 121
e 110 142
e 110 143
e 110 152
e 110 156
e 111 124
e 111 135
e 111 137
e 111 153
e 111 155
e 112 113
e 112 114
e 112 121
e 112 124
e 112 125
e 112 126
e 112 130
e 112 132
e 112 137
e 112 145
e 112 150
e 112 152
e 113 115
e 113 120
e 113 125
e 113 127
e 113 129
e 113 130
e 113 144
e 113 146
e 113 148
e 113 151
e 114 118
e 114 119
e 114 120
e 114 125
e 114 130
e 114 136
e 114 141
e 114 143
e 114 157
e 114 159
e 115 117
e 115 121
e 115 123
e 115 129
e 115 143
e 115 145
e 115 147
e 115 158
e 116 118
e 116 120
e 116 121
e 116 129
e 116 130
e 116 135
e 116 139
e 116 144
e 116 146
e 116 151
e 116 152
e 116 154
e 117 120
e 117 128
e 117 142
e 117 157
e 117 160
e 118 124
e 118 131
e 118 132
e 118 134
e 118 141
e 118 143
e 118 151
e 118 152
e 118 153
e 118 155
e 119 121
e 119 125
e 119 128
e 119 131
e 119 132
e 119 134
e 119 135
e 119 137
e 119 139
e 119 142
e 119 144
e 119 150
e 119 151
e 119 155
e 119 157
e 119 159
e 120 126
e 120 133
e 120 134
e 120 142
e 120 144
e 120 151
e 120 153
e 120 158
e 121 125
e 121 131
e 121 133
e 121 137
e 121 138
e 121 144
e 121 148
e 121 151
e 121 153
e 121 156
e 121 159
e 122 135
e 122 139
e 122 145
e 123 127
e 123 129
e 123 132
e 123 136
e 123 139
e 123 148
e 123 158
e 123 159
e 123 160
e 124 125
e 124 129
e 124 131
e 124 132
e 124 136
e 124 139
e 124 153
e 125 127
e 125 142
e 125 145
e 125 154
e 125 158
e 126 130
e 126 131
e 126 145
e 126 146
e 126 151
e 127 131
e 127 137
e 127 145
e 127 146
e 127 153
e 128 130
e 128 131
e 128 143
e 128 147
e 128 149
e 129 133
e 129 139
e 129 143
e 130 131
e 130 133
e 130 148
e 130 149
e 130 150
e 130 157
e 131 132
e 131 154
e 131 159
e 131 160
e 132 135
e 132 140
e 132 142
e 132 143
e 132 144
e 132 146
e 132 153
e 132 158
e 133 135
e 133 136
e 133 140
e 133 152
e 133 156
e 133 159
e 134 135
e 134 136
e 134 137
e 134 141
e 134 143
e 134 150
e 134 151
e 134 156
e 135 139
e 135 141
e 135 147
e 135 149
e 135 152
e 135 153
e 135 154
e 135 155
e 135 159
e 136 138
e 136 143
e 136 153
e 136 154
e 136 159
e 137 141
e 137 143
e 137 144
e 137 145
e 137 149
e 137 153
e 137 156
e 137 157
e 138 148
e 138 154
e 138 155
e 138 157
e 138 159
e 139 141
e 139 153
e 139 155
e 140 142
e 140 145
e 140 146
e 140 147
e 140 149
e 140 150
e 140 151
e 140 152
e 140 153
e 140 160
e 141 142
e 141 143
e 141 147
e 141 150
e 141 151
e 142 145
e 142 147
e 142 148
e 142 149
e 142 154
e 142 157
e 143 145
e 143 148
e 143 151
e 143 152
e 144 147
e 144 151
e 144 152
e 144 153
e 144 154
e 145 146
e 145 148
e 145 149
e 145 159
e 147 148
e 147 149
e 147 151
e 147 157
e 147 158
e 147 159
e 148 155
e 149 150
e 149 155
e 150 152
e 150 155
e 150 159
e 151 156
e 151 160
e 152 156
e 152 158
e 152 160
e 154 156
e 155 157
e 156 159
e 157 158
e 159 160
